Solver command line: ['C:\\Program Files\\IBM\\ILOG\\CPLEX_Studio2211\\cplex\\bin\\x64_win64\\cplex.exe']


Welcome to IBM(R) ILOG(R) CPLEX(R) Interactive Optimizer 22.1.1.0
  with Simplex, Mixed Integer & Barrier Optimizers
5725-A06 5725-A29 5724-Y48 5724-Y49 5724-Y54 5724-Y55 5655-Y21
Copyright IBM Corp. 1988, 2022.  All Rights Reserved.

Type 'help' for a list of available commands.
Type 'help' followed by a command name for more
information on commands.

CPLEX> Logfile 'cplex.log' closed.
Logfile 'C:\Users\wangy\Documents\GitHub\re_optimization\result_site_specific\tmp0l_2prb5.cplex.log' open.
CPLEX> Problem 'C:\Users\wangy\Documents\GitHub\re_optimization\result_site_specific\tmp7sxofca_.pyomo.lp' read.
Read time = 0.30 sec. (9.13 ticks)
CPLEX> Problem name         : C:\Users\wangy\Documents\GitHub\re_optimization\result_site_specific\tmp7sxofca_.pyomo.lp
Objective sense      : Minimize
Variables            :   65769  [Nneg: 35068,  Free: 8792,  Binary: 9,
                                 Other: 21900]
Objective nonzeros   :      17
Linear constraints   :   87665  [Less: 46741,  Greater: 5,  Equal: 40919]
  Nonzeros           :  225093
  RHS nonzeros       :    2242

Variables            : Min LB: 0.000000         Max UB: 1.000000       
Objective nonzeros   : Min   : 1.000000         Max   : 1.000000       
Linear constraints   :
  Nonzeros           : Min   : 0.0008190790     Max   : 100000.0       
  RHS nonzeros       : Min   : 0.1150000        Max   : 100000.0       
CPLEX> Version identifier: 22.1.1.0 | 2022-11-27 | 9160aff4d
Tried aggregator 3 times.
MIP Presolve eliminated 55810 rows and 35368 columns.
Aggregator did 11761 substitutions.
Reduced MIP has 20094 rows, 18640 columns, and 61123 nonzeros.
Reduced MIP has 5 binaries, 0 generals, 0 SOSs, and 0 indicators.
Presolve time = 0.19 sec. (223.81 ticks)
Found incumbent of value 336753.615278 after 0.28 sec. (314.41 ticks)
Probing time = 0.00 sec. (0.95 ticks)
Tried aggregator 1 time.
Detecting symmetries...
Reduced MIP has 20094 rows, 18640 columns, and 61123 nonzeros.
Reduced MIP has 5 binaries, 0 generals, 0 SOSs, and 0 indicators.
Presolve time = 0.03 sec. (39.74 ticks)
Probing time = 0.01 sec. (0.91 ticks)
MIP emphasis: balance optimality and feasibility.
MIP search method: dynamic search.
Parallel mode: deterministic, using up to 16 threads.
Root relaxation solution time = 0.69 sec. (579.89 ticks)

        Nodes                                         Cuts/
   Node  Left     Objective  IInf  Best Integer    Best Bound    ItCnt     Gap

*     0+    0                       336753.6153   -21781.7760           106.47%
      0     0     8528.0909     1   336753.6153     8528.0909       44   97.47%
*     0+    0                        10132.5017     8528.0909            15.83%
*     0+    0                        10132.1122     8528.0909            15.83%
      0     0        cutoff          10132.1122    10132.1122      147    0.00%
Elapsed time = 1.22 sec. (1112.47 ticks, tree = 0.01 MB, solutions = 3)

Mixed integer rounding cuts applied:  361

Root node processing (before b&c):
  Real time             =    1.23 sec. (1115.47 ticks)
Parallel b&c, 16 threads:
  Real time             =    0.00 sec. (0.00 ticks)
  Sync time (average)   =    0.00 sec.
  Wait time (average)   =    0.00 sec.
                          ------------
Total (root+branch&cut) =    1.23 sec. (1115.47 ticks)

Solution pool: 3 solutions saved.

MIP - Integer optimal solution:  Objective =  1.0132112176e+04
Solution time =    1.23 sec.  Iterations = 147  Nodes = 0
Deterministic time = 1115.66 ticks  (904.10 ticks/sec)

CPLEX> Incumbent solution written to file 'C:\Users\wangy\Documents\GitHub\re_optimization\result_site_specific\tmpwj7s8uh8.cplex.sol'.
CPLEX> 
